
;this file is automatically generated: Mon Nov 02 10:43:04 CST 2020

;declarations generated

(declare-fun oclExcludes ( Int Int) Bool)
(declare-fun Cardinality ( Int) Int)
(declare-fun obj_a3721dc2_4c40_43d6_a713_aaecad3e3ccc ( Int) Int)
(declare-fun oclSelect ( Int Bool) Int)
(declare-fun Enum0 ( Int) Int)
(declare-fun Enum1 ( Int) Int)
(declare-fun Enum2 ( Int) Int)
(declare-fun type_32e91adf_e399_44fb_b26c_a468b59763fe_Class2 ( Int) Bool)
(declare-fun type_32e91adf_e399_44fb_b26c_a468b59763fe_Class3 ( Int) Bool)
(declare-fun type_32e91adf_e399_44fb_b26c_a468b59763fe_Class4 ( Int) Bool)
(declare-fun type_32e91adf_e399_44fb_b26c_a468b59763fe_Class5 ( Int) Bool)
(declare-fun type_32e91adf_e399_44fb_b26c_a468b59763fe_Class0 ( Int) Bool)
(declare-fun type_32e91adf_e399_44fb_b26c_a468b59763fe_Class1 ( Int) Bool)
(declare-fun type_32e91adf_e399_44fb_b26c_a468b59763fe_Class17 ( Int) Bool)
(declare-fun type_32e91adf_e399_44fb_b26c_a468b59763fe_Class14 ( Int) Bool)
(declare-fun type_32e91adf_e399_44fb_b26c_a468b59763fe_Class13 ( Int) Bool)
(declare-fun container_ ( Int) Int)
(declare-fun type_32e91adf_e399_44fb_b26c_a468b59763fe_Class16 ( Int) Bool)
(declare-fun type_32e91adf_e399_44fb_b26c_a468b59763fe_Class15 ( Int) Bool)
(declare-fun type_32e91adf_e399_44fb_b26c_a468b59763fe_Class10 ( Int) Bool)
(declare-fun type_32e91adf_e399_44fb_b26c_a468b59763fe_Class12 ( Int) Bool)
(declare-fun type_32e91adf_e399_44fb_b26c_a468b59763fe_Class11 ( Int) Bool)
(declare-fun type_32e91adf_e399_44fb_b26c_a468b59763fe_Class6 ( Int) Bool)
(declare-fun type_32e91adf_e399_44fb_b26c_a468b59763fe_Class7 ( Int) Bool)
(declare-fun type_32e91adf_e399_44fb_b26c_a468b59763fe_Class8 ( Int) Bool)
(declare-fun type_32e91adf_e399_44fb_b26c_a468b59763fe_Class9 ( Int) Bool)
(declare-fun oclIncludes ( Int Int) Bool)
(declare-fun ObjAt ( Int Int) Int)

;formula(s) generated
(assert (forall ((p Int)) (=> ( type_32e91adf_e399_44fb_b26c_a468b59763fe_Class6 p )  (and (>= ( Enum0 ( obj_a3721dc2_4c40_43d6_a713_aaecad3e3ccc p )  )  0) (<= ( Enum0 ( obj_a3721dc2_4c40_43d6_a713_aaecad3e3ccc p )  )  4)))))
(assert (! (forall ((v Int)) (=> ( type_32e91adf_e399_44fb_b26c_a468b59763fe_Class6 v )  (= ( Enum0 ( obj_a3721dc2_4c40_43d6_a713_aaecad3e3ccc v )  )  4))):named l0))
(assert (! (exists ((o Int)) ( type_32e91adf_e399_44fb_b26c_a468b59763fe_Class0 ( obj_a3721dc2_4c40_43d6_a713_aaecad3e3ccc o )  ) ):named c0))
(assert (! (exists ((o Int)) ( type_32e91adf_e399_44fb_b26c_a468b59763fe_Class1 ( obj_a3721dc2_4c40_43d6_a713_aaecad3e3ccc o )  ) ):named c1))
(assert (! (exists ((o Int)) (and (and ( type_32e91adf_e399_44fb_b26c_a468b59763fe_Class10 ( obj_a3721dc2_4c40_43d6_a713_aaecad3e3ccc o )  )  ( type_32e91adf_e399_44fb_b26c_a468b59763fe_Class14 ( obj_a3721dc2_4c40_43d6_a713_aaecad3e3ccc o )  ) ) ( type_32e91adf_e399_44fb_b26c_a468b59763fe_Class16 ( obj_a3721dc2_4c40_43d6_a713_aaecad3e3ccc o )  ) )):named c2))
(assert (! (exists ((o Int)) ( type_32e91adf_e399_44fb_b26c_a468b59763fe_Class11 ( obj_a3721dc2_4c40_43d6_a713_aaecad3e3ccc o )  ) ):named c3))
(assert (! (exists ((o Int)) ( type_32e91adf_e399_44fb_b26c_a468b59763fe_Class12 ( obj_a3721dc2_4c40_43d6_a713_aaecad3e3ccc o )  ) ):named c4))
(assert (! (exists ((o Int)) ( type_32e91adf_e399_44fb_b26c_a468b59763fe_Class13 ( obj_a3721dc2_4c40_43d6_a713_aaecad3e3ccc o )  ) ):named c5))
(assert (! (exists ((o Int)) ( type_32e91adf_e399_44fb_b26c_a468b59763fe_Class14 ( obj_a3721dc2_4c40_43d6_a713_aaecad3e3ccc o )  ) ):named c6))
(assert (! (exists ((o Int)) ( type_32e91adf_e399_44fb_b26c_a468b59763fe_Class15 ( obj_a3721dc2_4c40_43d6_a713_aaecad3e3ccc o )  ) ):named c7))
(assert (! (exists ((o Int)) (and ( type_32e91adf_e399_44fb_b26c_a468b59763fe_Class16 ( obj_a3721dc2_4c40_43d6_a713_aaecad3e3ccc o )  )  ( type_32e91adf_e399_44fb_b26c_a468b59763fe_Class14 ( obj_a3721dc2_4c40_43d6_a713_aaecad3e3ccc o )  ) )):named c8))
(assert (! (exists ((o Int)) ( type_32e91adf_e399_44fb_b26c_a468b59763fe_Class17 ( obj_a3721dc2_4c40_43d6_a713_aaecad3e3ccc o )  ) ):named c9))
(assert (! (exists ((o Int)) ( type_32e91adf_e399_44fb_b26c_a468b59763fe_Class2 ( obj_a3721dc2_4c40_43d6_a713_aaecad3e3ccc o )  ) ):named c10))
(assert (! (exists ((o Int)) ( type_32e91adf_e399_44fb_b26c_a468b59763fe_Class3 ( obj_a3721dc2_4c40_43d6_a713_aaecad3e3ccc o )  ) ):named c11))
(assert (! (exists ((o Int)) ( type_32e91adf_e399_44fb_b26c_a468b59763fe_Class4 ( obj_a3721dc2_4c40_43d6_a713_aaecad3e3ccc o )  ) ):named c12))
(assert (! (exists ((o Int)) ( type_32e91adf_e399_44fb_b26c_a468b59763fe_Class5 ( obj_a3721dc2_4c40_43d6_a713_aaecad3e3ccc o )  ) ):named c13))
(assert (! (exists ((o Int)) ( type_32e91adf_e399_44fb_b26c_a468b59763fe_Class6 ( obj_a3721dc2_4c40_43d6_a713_aaecad3e3ccc o )  ) ):named c14))
(assert (! (exists ((o Int)) ( type_32e91adf_e399_44fb_b26c_a468b59763fe_Class7 ( obj_a3721dc2_4c40_43d6_a713_aaecad3e3ccc o )  ) ):named c15))
(assert (! (exists ((o Int)) ( type_32e91adf_e399_44fb_b26c_a468b59763fe_Class8 ( obj_a3721dc2_4c40_43d6_a713_aaecad3e3ccc o )  ) ):named c16))
(assert (! (exists ((o Int)) ( type_32e91adf_e399_44fb_b26c_a468b59763fe_Class9 ( obj_a3721dc2_4c40_43d6_a713_aaecad3e3ccc o )  ) ):named c17))

 ;end of formula 